(set-logic QF_NRA)
(declare-fun skoX () Real)
(declare-fun skoC () Real)
(declare-fun skoS () Real)
(assert (and (not (<= (+ (* (- 1770) skoC) (* 689 skoS)) 0)) (not (<= skoX 0))))
(set-info :status sat)
(check-sat)
